
Gurobi 9.1.2 (win64, Java) logging started Sat Nov 13 11:08:42 2021

Academic license - for non-commercial use only - expires 2022-10-30
Gurobi Optimizer version 9.1.2 build v9.1.2rc0 (win64)
Thread count: 6 physical cores, 12 logical processors, using up to 12 threads
Optimize a model with 60 rows, 800 columns and 1600 nonzeros
Model fingerprint: 0xc968b6a4
Variable types: 0 continuous, 800 integer (800 binary)
Coefficient statistics:
  Matrix range     [1e+00, 9e+02]
  Objective range  [1e+02, 9e+02]
  Bounds range     [1e+00, 1e+00]
  RHS range        [1e+00, 9e+02]
Found heuristic solution: objective 10280.000000
Presolve removed 14 rows and 469 columns
Presolve time: 0.00s
Presolved: 46 rows, 331 columns, 659 nonzeros
Variable types: 0 continuous, 331 integer (331 binary)
Presolve removed 0 rows and 23 columns
Presolved: 46 rows, 308 columns, 614 nonzeros

Extra simplex iterations after uncrush: 1

Root relaxation: objective 1.286846e+04, 191 iterations, 0.00 seconds

    Nodes    |    Current Node    |     Objective Bounds      |     Work
 Expl Unexpl |  Obj  Depth IntInf | Incumbent    BestBd   Gap | It/Node Time

     0     0 12868.4628    0   14 10280.0000 12868.4628  25.2%     -    0s
H    0     0                    12329.000000 12868.4628  4.38%     -    0s
     0     0 12809.1069    0   26 12329.0000 12809.1069  3.89%     -    0s
H    0     0                    12513.000000 12809.1069  2.37%     -    0s
H    0     0                    12778.000000 12809.1069  0.24%     -    0s
     0     0 12794.6333    0   33 12778.0000 12794.6333  0.13%     -    0s
     0     0     cutoff    0      12778.0000 12778.0000  0.00%     -    0s

Cutting planes:
  Gomory: 9
  Cover: 14
  Clique: 1
  MIR: 9
  StrongCG: 9

Explored 1 nodes (435 simplex iterations) in 0.04 seconds
Thread count was 12 (of 12 available processors)

Solution count 4: 12778 12513 12329 10280 

Optimal solution found (tolerance 1.00e-12)
Best objective 1.277800000000e+04, best bound 1.277800000000e+04, gap 0.0000%
